proyfinal/src/viki/013/andrea/andrea-localstore/experimentInOfficeAgust.take6/worker_8/943b9103-1154-4721-ad72-9bcef21c8033.als.cnf.out
Reading from standard input... Use '--help' for help.
============================[ Problem Statistics ]=============================
|                                                                             |
|  Number of variables:         87638                                         |
|  Number of clauses:          161767                                         |
|  Parse time:                   0.04 s                                       |
|                                                                             |
============================[ Search Statistics ]==============================
| Conflicts |          ORIGINAL         |          LEARNT          | Progress |
|           |    Vars  Clauses Literals |    Limit  Clauses Lit/Cl |          |
===============================================================================
|       100 |   63164   108014   269949 |    39605      100     16 | 27.926 % |
|       250 |   63164   108014   269949 |    43565      250     51 | 27.926 % |
|       475 |   63164   108014   269949 |    47922      475     70 | 27.926 % |
|       812 |   63088   107708   269230 |    52714      809     66 | 28.013 % |
|      1318 |   63087   107664   269140 |    57985     1314     66 | 28.014 % |
|      2077 |   51253    73793   185803 |    63784     2024     68 | 41.517 % |
|      3216 |   51161    73391   184834 |    70162     3157     65 | 41.622 % |
|      4924 |   50959    72593   182897 |    77179     4849     65 | 41.853 % |
|      7486 |   50249    70386   177567 |    84897     7326     62 | 42.663 % |
|     11330 |   50088    69363   175089 |    93386     9762     58 | 42.847 % |
===============================================================================
restarts              : 63
conflicts             : 16491          (7130 /sec)
decisions             : 49294          (0.00 % random) (21313 /sec)
propagations          : 24295707       (10504816 /sec)
conflict literals     : 962722         (46.77 % deleted)
Memory used           : 36.03 MB
CPU time              : 2.31282 s

INDETERMINATE
